data/lp_files/pEFS/59_4.lp
\ Model foo
\ LP format - for model browsing. Use MPS format to capture full model detail.
Minimize
  z
Subject To
 allocateEach[1]: x[1,1] + x[2,1] + x[3,1] = 1
 allocateEach[2]: x[1,2] + x[2,2] + x[3,2] = 1
 allocateEach[3]: x[1,3] + x[2,3] + x[3,3] = 1
 allocateEach[4]: x[1,4] + x[2,4] + x[3,4] = 1
 allocateEach[5]: x[1,5] + x[2,5] + x[3,5] = 1
 allocateEach[6]: x[1,6] + x[2,6] + x[3,6] = 1
 allocateEach[7]: x[1,7] + x[2,7] + x[3,7] = 1
 allocateEach[8]: x[1,8] + x[2,8] + x[3,8] = 1
 allocateEach[9]: x[1,9] + x[2,9] + x[3,9] = 1
 allocateEach[10]: x[1,10] + x[2,10] + x[3,10] = 1
 allocateEach[11]: x[1,11] + x[2,11] + x[3,11] = 1
 allocateEach[12]: x[1,12] + x[2,12] + x[3,12] = 1
 allocateEach[13]: x[1,13] + x[2,13] + x[3,13] = 1
 allocateEach[14]: x[1,14] + x[2,14] + x[3,14] = 1
 allocateEach[15]: x[1,15] + x[2,15] + x[3,15] = 1
 allocateEach[16]: x[1,16] + x[2,16] + x[3,16] = 1
 allocateEach[17]: x[1,17] + x[2,17] + x[3,17] = 1
 allocateEach[18]: x[1,18] + x[2,18] + x[3,18] = 1
 allocateEach[19]: x[1,19] + x[2,19] + x[3,19] = 1
 allocateAllCash: cashProportion[1] + cashProportion[2] + cashProportion[3]
   = 1
 findWorstP[1,2]: z + 0.0232618728599077 cashProportion[1]
   - 0.0232618728599077 cashProportion[2] + 0.0875949084412684 x[1,1]
   + 0.0904886854250409 x[1,2] + 0.023438663093643 x[1,3]
   + 0.0609647163912461 x[1,4] + 0.0165252344796784 x[1,5]
   + 0.0845987792169123 x[1,6] + 0.0668918415959506 x[1,7]
   + 0.0741495459282418 x[1,8] + 0.00154458835789787 x[1,9]
   + 0.0732748995087092 x[1,10] + 0.00455002233139795 x[1,11]
   + 0.0836031710585083 x[1,12] + 1.9539973202322463e-04 x[1,13]
   + 0.0318408515706417 x[1,14] + 0.0608995831472383 x[1,15]
   + 0.0281654756587762 x[1,16] + 0.0246110614857823 x[1,17]
   + 0.0878089176715796 x[1,18] + 0.0755917820455561 x[1,19]
   - 0.0875949084412684 x[2,1] - 0.0904886854250409 x[2,2]
   - 0.023438663093643 x[2,3] - 0.0609647163912461 x[2,4]
   - 0.0165252344796784 x[2,5] - 0.0845987792169123 x[2,6]
   - 0.0668918415959506 x[2,7] - 0.0741495459282418 x[2,8]
   - 0.00154458835789787 x[2,9] - 0.0732748995087092 x[2,10]
   - 0.00455002233139795 x[2,11] - 0.0836031710585083 x[2,12]
   - 1.9539973202322463e-04 x[2,13] - 0.0318408515706417 x[2,14]
   - 0.0608995831472383 x[2,15] - 0.0281654756587762 x[2,16]
   - 0.0246110614857823 x[2,17] - 0.0878089176715796 x[2,18]
   - 0.0755917820455561 x[2,19] >= 0
 findWorstP[1,3]: z + 0.0232618728599077 cashProportion[1]
   - 0.0232618728599077 cashProportion[3] + 0.0875949084412684 x[1,1]
   + 0.0904886854250409 x[1,2] + 0.023438663093643 x[1,3]
   + 0.0609647163912461 x[1,4] + 0.0165252344796784 x[1,5]
   + 0.0845987792169123 x[1,6] + 0.0668918415959506 x[1,7]
   + 0.0741495459282418 x[1,8] + 0.00154458835789787 x[1,9]
   + 0.0732748995087092 x[1,10] + 0.00455002233139795 x[1,11]
   + 0.0836031710585083 x[1,12] + 1.9539973202322463e-04 x[1,13]
   + 0.0318408515706417 x[1,14] + 0.0608995831472383 x[1,15]
   + 0.0281654756587762 x[1,16] + 0.0246110614857823 x[1,17]
   + 0.0878089176715796 x[1,18] + 0.0755917820455561 x[1,19]
   - 0.0875949084412684 x[3,1] - 0.0904886854250409 x[3,2]
   - 0.023438663093643 x[3,3] - 0.0609647163912461 x[3,4]
   - 0.0165252344796784 x[3,5] - 0.0845987792169123 x[3,6]
   - 0.0668918415959506 x[3,7] - 0.0741495459282418 x[3,8]
   - 0.00154458835789787 x[3,9] - 0.0732748995087092 x[3,10]
   - 0.00455002233139795 x[3,11] - 0.0836031710585083 x[3,12]
   - 1.9539973202322463e-04 x[3,13] - 0.0318408515706417 x[3,14]
   - 0.0608995831472383 x[3,15] - 0.0281654756587762 x[3,16]
   - 0.0246110614857823 x[3,17] - 0.0878089176715796 x[3,18]
   - 0.0755917820455561 x[3,19] >= 0
 findWorstP[2,1]: z - 0.0339867859376275 cashProportion[1]
   + 0.0339867859376275 cashProportion[2] - 0.00640311047064901 x[1,1]
   - 0.00394246716876478 x[1,2] - 0.1097773185785367 x[1,3]
   - 0.1270697952636015 x[1,4] - 0.0493760026101852 x[1,5]
   - 0.0648331928546181 x[1,6] - 0.0850077489871938 x[1,7]
   - 0.018923842410071 x[1,8] - 0.1004513445172517 x[1,9]
   - 0.013608309089426 x[1,10] - 0.0309551646319911 x[1,11]
   - 0.00823839691128089 x[1,12] - 0.0238451290138394 x[1,13]
   - 0.088787079583458 x[1,14] - 0.0483835884608064 x[1,15]
   - 0.018665542836945 x[1,16] - 0.0578455096658419 x[1,17]
   - 0.0844367709834416 x[1,18] - 0.0254629 x[1,19]
   + 0.00640311047064901 x[2,1] + 0.00394246716876478 x[2,2]
   + 0.1097773185785367 x[2,3] + 0.1270697952636015 x[2,4]
   + 0.0493760026101852 x[2,5] + 0.0648331928546181 x[2,6]
   + 0.0850077489871938 x[2,7] + 0.018923842410071 x[2,8]
   + 0.1004513445172517 x[2,9] + 0.013608309089426 x[2,10]
   + 0.0309551646319911 x[2,11] + 0.00823839691128089 x[2,12]
   + 0.0238451290138394 x[2,13] + 0.088787079583458 x[2,14]
   + 0.0483835884608064 x[2,15] + 0.018665542836945 x[2,16]
   + 0.0578455096658419 x[2,17] + 0.0844367709834416 x[2,18]
   + 0.0254629 x[2,19] >= 0
 findWorstP[2,3]: z + 0.0339867859376275 cashProportion[2]
   - 0.0339867859376275 cashProportion[3] + 0.00640311047064901 x[2,1]
   + 0.00394246716876478 x[2,2] + 0.1097773185785367 x[2,3]
   + 0.1270697952636015 x[2,4] + 0.0493760026101852 x[2,5]
   + 0.0648331928546181 x[2,6] + 0.0850077489871938 x[2,7]
   + 0.018923842410071 x[2,8] + 0.1004513445172517 x[2,9]
   + 0.013608309089426 x[2,10] + 0.0309551646319911 x[2,11]
   + 0.00823839691128089 x[2,12] + 0.0238451290138394 x[2,13]
   + 0.088787079583458 x[2,14] + 0.0483835884608064 x[2,15]
   + 0.018665542836945 x[2,16] + 0.0578455096658419 x[2,17]
   + 0.0844367709834416 x[2,18] + 0.0254629 x[2,19]
   - 0.00640311047064901 x[3,1] - 0.00394246716876478 x[3,2]
   - 0.1097773185785367 x[3,3] - 0.1270697952636015 x[3,4]
   - 0.0493760026101852 x[3,5] - 0.0648331928546181 x[3,6]
   - 0.0850077489871938 x[3,7] - 0.018923842410071 x[3,8]
   - 0.1004513445172517 x[3,9] - 0.013608309089426 x[3,10]
   - 0.0309551646319911 x[3,11] - 0.00823839691128089 x[3,12]
   - 0.0238451290138394 x[3,13] - 0.088787079583458 x[3,14]
   - 0.0483835884608064 x[3,15] - 0.018665542836945 x[3,16]
   - 0.0578455096658419 x[3,17] - 0.0844367709834416 x[3,18]
   - 0.0254629 x[3,19] >= 0
 findWorstP[3,1]: z - 0.0185044003464024 cashProportion[1]
   + 0.0185044003464024 cashProportion[3] - 0.0300215391220032 x[1,1]
   - 0.0207175266278321 x[1,2] - 0.00481854585020318 x[1,3]
   - 0.0596581867168013 x[1,4] - 0.0525228899432285 x[1,5]
   - 0.0607462454571697 x[1,6] - 0.0484963324278514 x[1,7]
   - 0.0557130485629483 x[1,8] - 0.061330984508116 x[1,9]
   - 0.0396216220217168 x[1,10] - 0.0427081559994967 x[1,11]
   - 0.0651280874591978 x[1,12] - 0.0706498005225643 x[1,13]
   - 0.0691916537752678 x[1,14] - 0.0706498005225643 x[1,15]
   - 0.0704277477184075 x[1,16] - 0.0407614930830552 x[1,17]
   - 0.0686883340858456 x[1,18] - 0.0496436052493283 x[1,19]
   + 0.0300215391220032 x[3,1] + 0.0207175266278321 x[3,2]
   + 0.00481854585020318 x[3,3] + 0.0596581867168013 x[3,4]
   + 0.0525228899432285 x[3,5] + 0.0607462454571697 x[3,6]
   + 0.0484963324278514 x[3,7] + 0.0557130485629483 x[3,8]
   + 0.061330984508116 x[3,9] + 0.0396216220217168 x[3,10]
   + 0.0427081559994967 x[3,11] + 0.0651280874591978 x[3,12]
   + 0.0706498005225643 x[3,13] + 0.0691916537752678 x[3,14]
   + 0.0706498005225643 x[3,15] + 0.0704277477184075 x[3,16]
   + 0.0407614930830552 x[3,17] + 0.0686883340858456 x[3,18]
   + 0.0496436052493283 x[3,19] >= 0
 findWorstP[3,2]: z - 0.0185044003464024 cashProportion[2]
   + 0.0185044003464024 cashProportion[3] - 0.0300215391220032 x[2,1]
   - 0.0207175266278321 x[2,2] - 0.00481854585020318 x[2,3]
   - 0.0596581867168013 x[2,4] - 0.0525228899432285 x[2,5]
   - 0.0607462454571697 x[2,6] - 0.0484963324278514 x[2,7]
   - 0.0557130485629483 x[2,8] - 0.061330984508116 x[2,9]
   - 0.0396216220217168 x[2,10] - 0.0427081559994967 x[2,11]
   - 0.0651280874591978 x[2,12] - 0.0706498005225643 x[2,13]
   - 0.0691916537752678 x[2,14] - 0.0706498005225643 x[2,15]
   - 0.0704277477184075 x[2,16] - 0.0407614930830552 x[2,17]
   - 0.0686883340858456 x[2,18] - 0.0496436052493283 x[2,19]
   + 0.0300215391220032 x[3,1] + 0.0207175266278321 x[3,2]
   + 0.00481854585020318 x[3,3] + 0.0596581867168013 x[3,4]
   + 0.0525228899432285 x[3,5] + 0.0607462454571697 x[3,6]
   + 0.0484963324278514 x[3,7] + 0.0557130485629483 x[3,8]
   + 0.061330984508116 x[3,9] + 0.0396216220217168 x[3,10]
   + 0.0427081559994967 x[3,11] + 0.0651280874591978 x[3,12]
   + 0.0706498005225643 x[3,13] + 0.0691916537752678 x[3,14]
   + 0.0706498005225643 x[3,15] + 0.0704277477184075 x[3,16]
   + 0.0407614930830552 x[3,17] + 0.0686883340858456 x[3,18]
   + 0.0496436052493283 x[3,19] >= 0
Bounds
 z <= 1
 -infinity <= cashProportion[1] <= 1
 -infinity <= cashProportion[2] <= 1
 -infinity <= cashProportion[3] <= 1
Binaries
 x[1,1] x[1,2] x[1,3] x[1,4] x[1,5] x[1,6] x[1,7] x[1,8] x[1,9] x[1,10]
 x[1,11] x[1,12] x[1,13] x[1,14] x[1,15] x[1,16] x[1,17] x[1,18] x[1,19]
 x[2,1] x[2,2] x[2,3] x[2,4] x[2,5] x[2,6] x[2,7] x[2,8] x[2,9] x[2,10]
 x[2,11] x[2,12] x[2,13] x[2,14] x[2,15] x[2,16] x[2,17] x[2,18] x[2,19]
 x[3,1] x[3,2] x[3,3] x[3,4] x[3,5] x[3,6] x[3,7] x[3,8] x[3,9] x[3,10]
 x[3,11] x[3,12] x[3,13] x[3,14] x[3,15] x[3,16] x[3,17] x[3,18] x[3,19]
End
