data/mps_files/pEFS/59_4.mps
NAME foo
ROWS
 N  OBJ
 E  allocateEach[1]
 E  allocateEach[2]
 E  allocateEach[3]
 E  allocateEach[4]
 E  allocateEach[5]
 E  allocateEach[6]
 E  allocateEach[7]
 E  allocateEach[8]
 E  allocateEach[9]
 E  allocateEach[10]
 E  allocateEach[11]
 E  allocateEach[12]
 E  allocateEach[13]
 E  allocateEach[14]
 E  allocateEach[15]
 E  allocateEach[16]
 E  allocateEach[17]
 E  allocateEach[18]
 E  allocateEach[19]
 E  allocateAllCash
 G  findWorstP[1,2]
 G  findWorstP[1,3]
 G  findWorstP[2,1]
 G  findWorstP[2,3]
 G  findWorstP[3,1]
 G  findWorstP[3,2]
COLUMNS
    z         OBJ       1
    z         findWorstP[1,2]  1
    z         findWorstP[1,3]  1
    z         findWorstP[2,1]  1
    z         findWorstP[2,3]  1
    z         findWorstP[3,1]  1
    z         findWorstP[3,2]  1
    cashProportion[1]  allocateAllCash  1
    cashProportion[1]  findWorstP[1,2]  2.3261872859907697e-02
    cashProportion[1]  findWorstP[1,3]  2.3261872859907697e-02
    cashProportion[1]  findWorstP[2,1]  -3.3986785937627453e-02
    cashProportion[1]  findWorstP[3,1]  -1.8504400346402380e-02
    cashProportion[2]  allocateAllCash  1
    cashProportion[2]  findWorstP[1,2]  -2.3261872859907697e-02
    cashProportion[2]  findWorstP[2,1]  3.3986785937627453e-02
    cashProportion[2]  findWorstP[2,3]  3.3986785937627453e-02
    cashProportion[2]  findWorstP[3,2]  -1.8504400346402380e-02
    cashProportion[3]  allocateAllCash  1
    cashProportion[3]  findWorstP[1,3]  -2.3261872859907697e-02
    cashProportion[3]  findWorstP[2,3]  -3.3986785937627453e-02
    cashProportion[3]  findWorstP[3,1]  1.8504400346402380e-02
    cashProportion[3]  findWorstP[3,2]  1.8504400346402380e-02
    MARKER    'MARKER'                 'INTORG'
    x[1,1]    allocateEach[1]  1
    x[1,1]    findWorstP[1,2]  8.7594908441268424e-02
    x[1,1]    findWorstP[1,3]  8.7594908441268424e-02
    x[1,1]    findWorstP[2,1]  -6.4031104706490129e-03
    x[1,1]    findWorstP[3,1]  -3.0021539122003223e-02
    x[1,2]    allocateEach[2]  1
    x[1,2]    findWorstP[1,2]  9.0488685425040946e-02
    x[1,2]    findWorstP[1,3]  9.0488685425040946e-02
    x[1,2]    findWorstP[2,1]  -3.9424671687647850e-03
    x[1,2]    findWorstP[3,1]  -2.0717526627832102e-02
    x[1,3]    allocateEach[3]  1
    x[1,3]    findWorstP[1,2]  2.3438663093642995e-02
    x[1,3]    findWorstP[1,3]  2.3438663093642995e-02
    x[1,3]    findWorstP[2,1]  -1.0977731857853668e-01
    x[1,3]    findWorstP[3,1]  -0.00481854585020318
    x[1,4]    allocateEach[4]  1
    x[1,4]    findWorstP[1,2]  6.0964716391246093e-02
    x[1,4]    findWorstP[1,3]  6.0964716391246093e-02
    x[1,4]    findWorstP[2,1]  -1.2706979526360151e-01
    x[1,4]    findWorstP[3,1]  -5.9658186716801273e-02
    x[1,5]    allocateEach[5]  1
    x[1,5]    findWorstP[1,2]  1.6525234479678429e-02
    x[1,5]    findWorstP[1,3]  1.6525234479678429e-02
    x[1,5]    findWorstP[2,1]  -4.9376002610185168e-02
    x[1,5]    findWorstP[3,1]  -5.2522889943228512e-02
    x[1,6]    allocateEach[6]  1
    x[1,6]    findWorstP[1,2]  0.0845987792169123
    x[1,6]    findWorstP[1,3]  0.0845987792169123
    x[1,6]    findWorstP[2,1]  -6.4833192854618124e-02
    x[1,6]    findWorstP[3,1]  -6.0746245457169730e-02
    x[1,7]    allocateEach[7]  1
    x[1,7]    findWorstP[1,2]  6.6891841595950574e-02
    x[1,7]    findWorstP[1,3]  6.6891841595950574e-02
    x[1,7]    findWorstP[2,1]  -8.5007748987193779e-02
    x[1,7]    findWorstP[3,1]  -4.8496332427851355e-02
    x[1,8]    allocateEach[8]  1
    x[1,8]    findWorstP[1,2]  7.4149545928241772e-02
    x[1,8]    findWorstP[1,3]  7.4149545928241772e-02
    x[1,8]    findWorstP[2,1]  -1.8923842410070963e-02
    x[1,8]    findWorstP[3,1]  -5.5713048562948286e-02
    x[1,9]    allocateEach[9]  1
    x[1,9]    findWorstP[1,2]  1.5445883578978710e-03
    x[1,9]    findWorstP[1,3]  1.5445883578978710e-03
    x[1,9]    findWorstP[2,1]  -1.0045134451725170e-01
    x[1,9]    findWorstP[3,1]  -6.1330984508116047e-02
    x[1,10]   allocateEach[10]  1
    x[1,10]   findWorstP[1,2]  7.3274899508709246e-02
    x[1,10]   findWorstP[1,3]  7.3274899508709246e-02
    x[1,10]   findWorstP[2,1]  -1.3608309089426032e-02
    x[1,10]   findWorstP[3,1]  -3.9621622021716776e-02
    x[1,11]   allocateEach[11]  1
    x[1,11]   findWorstP[1,2]  4.5500223313979455e-03
    x[1,11]   findWorstP[1,3]  4.5500223313979455e-03
    x[1,11]   findWorstP[2,1]  -3.0955164631991085e-02
    x[1,11]   findWorstP[3,1]  -4.2708155999496691e-02
    x[1,12]   allocateEach[12]  1
    x[1,12]   findWorstP[1,2]  8.3603171058508258e-02
    x[1,12]   findWorstP[1,3]  8.3603171058508258e-02
    x[1,12]   findWorstP[2,1]  -8.2383969112808948e-03
    x[1,12]   findWorstP[3,1]  -6.5128087459197820e-02
    x[1,13]   allocateEach[13]  1
    x[1,13]   findWorstP[1,2]  1.9539973202322463e-04
    x[1,13]   findWorstP[1,3]  1.9539973202322463e-04
    x[1,13]   findWorstP[2,1]  -2.3845129013839422e-02
    x[1,13]   findWorstP[3,1]  -7.0649800522564282e-02
    x[1,14]   allocateEach[14]  1
    x[1,14]   findWorstP[1,2]  3.1840851570641655e-02
    x[1,14]   findWorstP[1,3]  3.1840851570641655e-02
    x[1,14]   findWorstP[2,1]  -8.8787079583457967e-02
    x[1,14]   findWorstP[3,1]  -6.9191653775267772e-02
    x[1,15]   allocateEach[15]  1
    x[1,15]   findWorstP[1,2]  6.0899583147238347e-02
    x[1,15]   findWorstP[1,3]  6.0899583147238347e-02
    x[1,15]   findWorstP[2,1]  -4.8383588460806440e-02
    x[1,15]   findWorstP[3,1]  -7.0649800522564282e-02
    x[1,16]   allocateEach[16]  1
    x[1,16]   findWorstP[1,2]  2.8165475658776241e-02
    x[1,16]   findWorstP[1,3]  2.8165475658776241e-02
    x[1,16]   findWorstP[2,1]  -0.018665542836945
    x[1,16]   findWorstP[3,1]  -7.0427747718407457e-02
    x[1,17]   allocateEach[17]  1
    x[1,17]   findWorstP[1,2]  2.4611061485782345e-02
    x[1,17]   findWorstP[1,3]  2.4611061485782345e-02
    x[1,17]   findWorstP[2,1]  -5.7845509665841927e-02
    x[1,17]   findWorstP[3,1]  -4.0761493083055163e-02
    x[1,18]   allocateEach[18]  1
    x[1,18]   findWorstP[1,2]  8.7808917671579570e-02
    x[1,18]   findWorstP[1,3]  8.7808917671579570e-02
    x[1,18]   findWorstP[2,1]  -8.4436770983441642e-02
    x[1,18]   findWorstP[3,1]  -6.8688334085845640e-02
    x[1,19]   allocateEach[19]  1
    x[1,19]   findWorstP[1,2]  7.5591782045556055e-02
    x[1,19]   findWorstP[1,3]  7.5591782045556055e-02
    x[1,19]   findWorstP[2,1]  -2.5462900024470488e-02
    x[1,19]   findWorstP[3,1]  -0.0496436052493283
    x[2,1]    allocateEach[1]  1
    x[2,1]    findWorstP[1,2]  -8.7594908441268424e-02
    x[2,1]    findWorstP[2,1]  6.4031104706490129e-03
    x[2,1]    findWorstP[2,3]  6.4031104706490129e-03
    x[2,1]    findWorstP[3,2]  -3.0021539122003223e-02
    x[2,2]    allocateEach[2]  1
    x[2,2]    findWorstP[1,2]  -9.0488685425040946e-02
    x[2,2]    findWorstP[2,1]  3.9424671687647850e-03
    x[2,2]    findWorstP[2,3]  3.9424671687647850e-03
    x[2,2]    findWorstP[3,2]  -2.0717526627832102e-02
    x[2,3]    allocateEach[3]  1
    x[2,3]    findWorstP[1,2]  -2.3438663093642995e-02
    x[2,3]    findWorstP[2,1]  1.0977731857853668e-01
    x[2,3]    findWorstP[2,3]  1.0977731857853668e-01
    x[2,3]    findWorstP[3,2]  -0.00481854585020318
    x[2,4]    allocateEach[4]  1
    x[2,4]    findWorstP[1,2]  -6.0964716391246093e-02
    x[2,4]    findWorstP[2,1]  1.2706979526360151e-01
    x[2,4]    findWorstP[2,3]  1.2706979526360151e-01
    x[2,4]    findWorstP[3,2]  -5.9658186716801273e-02
    x[2,5]    allocateEach[5]  1
    x[2,5]    findWorstP[1,2]  -1.6525234479678429e-02
    x[2,5]    findWorstP[2,1]  4.9376002610185168e-02
    x[2,5]    findWorstP[2,3]  4.9376002610185168e-02
    x[2,5]    findWorstP[3,2]  -5.2522889943228512e-02
    x[2,6]    allocateEach[6]  1
    x[2,6]    findWorstP[1,2]  -0.0845987792169123
    x[2,6]    findWorstP[2,1]  6.4833192854618124e-02
    x[2,6]    findWorstP[2,3]  6.4833192854618124e-02
    x[2,6]    findWorstP[3,2]  -6.0746245457169730e-02
    x[2,7]    allocateEach[7]  1
    x[2,7]    findWorstP[1,2]  -6.6891841595950574e-02
    x[2,7]    findWorstP[2,1]  8.5007748987193779e-02
    x[2,7]    findWorstP[2,3]  8.5007748987193779e-02
    x[2,7]    findWorstP[3,2]  -4.8496332427851355e-02
    x[2,8]    allocateEach[8]  1
    x[2,8]    findWorstP[1,2]  -7.4149545928241772e-02
    x[2,8]    findWorstP[2,1]  1.8923842410070963e-02
    x[2,8]    findWorstP[2,3]  1.8923842410070963e-02
    x[2,8]    findWorstP[3,2]  -5.5713048562948286e-02
    x[2,9]    allocateEach[9]  1
    x[2,9]    findWorstP[1,2]  -1.5445883578978710e-03
    x[2,9]    findWorstP[2,1]  1.0045134451725170e-01
    x[2,9]    findWorstP[2,3]  1.0045134451725170e-01
    x[2,9]    findWorstP[3,2]  -6.1330984508116047e-02
    x[2,10]   allocateEach[10]  1
    x[2,10]   findWorstP[1,2]  -7.3274899508709246e-02
    x[2,10]   findWorstP[2,1]  1.3608309089426032e-02
    x[2,10]   findWorstP[2,3]  1.3608309089426032e-02
    x[2,10]   findWorstP[3,2]  -3.9621622021716776e-02
    x[2,11]   allocateEach[11]  1
    x[2,11]   findWorstP[1,2]  -4.5500223313979455e-03
    x[2,11]   findWorstP[2,1]  3.0955164631991085e-02
    x[2,11]   findWorstP[2,3]  3.0955164631991085e-02
    x[2,11]   findWorstP[3,2]  -4.2708155999496691e-02
    x[2,12]   allocateEach[12]  1
    x[2,12]   findWorstP[1,2]  -8.3603171058508258e-02
    x[2,12]   findWorstP[2,1]  8.2383969112808948e-03
    x[2,12]   findWorstP[2,3]  8.2383969112808948e-03
    x[2,12]   findWorstP[3,2]  -6.5128087459197820e-02
    x[2,13]   allocateEach[13]  1
    x[2,13]   findWorstP[1,2]  -1.9539973202322463e-04
    x[2,13]   findWorstP[2,1]  2.3845129013839422e-02
    x[2,13]   findWorstP[2,3]  2.3845129013839422e-02
    x[2,13]   findWorstP[3,2]  -7.0649800522564282e-02
    x[2,14]   allocateEach[14]  1
    x[2,14]   findWorstP[1,2]  -3.1840851570641655e-02
    x[2,14]   findWorstP[2,1]  8.8787079583457967e-02
    x[2,14]   findWorstP[2,3]  8.8787079583457967e-02
    x[2,14]   findWorstP[3,2]  -6.9191653775267772e-02
    x[2,15]   allocateEach[15]  1
    x[2,15]   findWorstP[1,2]  -6.0899583147238347e-02
    x[2,15]   findWorstP[2,1]  4.8383588460806440e-02
    x[2,15]   findWorstP[2,3]  4.8383588460806440e-02
    x[2,15]   findWorstP[3,2]  -7.0649800522564282e-02
    x[2,16]   allocateEach[16]  1
    x[2,16]   findWorstP[1,2]  -2.8165475658776241e-02
    x[2,16]   findWorstP[2,1]  0.018665542836945
    x[2,16]   findWorstP[2,3]  0.018665542836945
    x[2,16]   findWorstP[3,2]  -7.0427747718407457e-02
    x[2,17]   allocateEach[17]  1
    x[2,17]   findWorstP[1,2]  -2.4611061485782345e-02
    x[2,17]   findWorstP[2,1]  5.7845509665841927e-02
    x[2,17]   findWorstP[2,3]  5.7845509665841927e-02
    x[2,17]   findWorstP[3,2]  -4.0761493083055163e-02
    x[2,18]   allocateEach[18]  1
    x[2,18]   findWorstP[1,2]  -8.7808917671579570e-02
    x[2,18]   findWorstP[2,1]  8.4436770983441642e-02
    x[2,18]   findWorstP[2,3]  8.4436770983441642e-02
    x[2,18]   findWorstP[3,2]  -6.8688334085845640e-02
    x[2,19]   allocateEach[19]  1
    x[2,19]   findWorstP[1,2]  -7.5591782045556055e-02
    x[2,19]   findWorstP[2,1]  2.5462900024470488e-02
    x[2,19]   findWorstP[2,3]  2.5462900024470488e-02
    x[2,19]   findWorstP[3,2]  -0.0496436052493283
    x[3,1]    allocateEach[1]  1
    x[3,1]    findWorstP[1,3]  -8.7594908441268424e-02
    x[3,1]    findWorstP[2,3]  -6.4031104706490129e-03
    x[3,1]    findWorstP[3,1]  3.0021539122003223e-02
    x[3,1]    findWorstP[3,2]  3.0021539122003223e-02
    x[3,2]    allocateEach[2]  1
    x[3,2]    findWorstP[1,3]  -9.0488685425040946e-02
    x[3,2]    findWorstP[2,3]  -3.9424671687647850e-03
    x[3,2]    findWorstP[3,1]  2.0717526627832102e-02
    x[3,2]    findWorstP[3,2]  2.0717526627832102e-02
    x[3,3]    allocateEach[3]  1
    x[3,3]    findWorstP[1,3]  -2.3438663093642995e-02
    x[3,3]    findWorstP[2,3]  -1.0977731857853668e-01
    x[3,3]    findWorstP[3,1]  0.00481854585020318
    x[3,3]    findWorstP[3,2]  0.00481854585020318
    x[3,4]    allocateEach[4]  1
    x[3,4]    findWorstP[1,3]  -6.0964716391246093e-02
    x[3,4]    findWorstP[2,3]  -1.2706979526360151e-01
    x[3,4]    findWorstP[3,1]  5.9658186716801273e-02
    x[3,4]    findWorstP[3,2]  5.9658186716801273e-02
    x[3,5]    allocateEach[5]  1
    x[3,5]    findWorstP[1,3]  -1.6525234479678429e-02
    x[3,5]    findWorstP[2,3]  -4.9376002610185168e-02
    x[3,5]    findWorstP[3,1]  5.2522889943228512e-02
    x[3,5]    findWorstP[3,2]  5.2522889943228512e-02
    x[3,6]    allocateEach[6]  1
    x[3,6]    findWorstP[1,3]  -0.0845987792169123
    x[3,6]    findWorstP[2,3]  -6.4833192854618124e-02
    x[3,6]    findWorstP[3,1]  6.0746245457169730e-02
    x[3,6]    findWorstP[3,2]  6.0746245457169730e-02
    x[3,7]    allocateEach[7]  1
    x[3,7]    findWorstP[1,3]  -6.6891841595950574e-02
    x[3,7]    findWorstP[2,3]  -8.5007748987193779e-02
    x[3,7]    findWorstP[3,1]  4.8496332427851355e-02
    x[3,7]    findWorstP[3,2]  4.8496332427851355e-02
    x[3,8]    allocateEach[8]  1
    x[3,8]    findWorstP[1,3]  -7.4149545928241772e-02
    x[3,8]    findWorstP[2,3]  -1.8923842410070963e-02
    x[3,8]    findWorstP[3,1]  5.5713048562948286e-02
    x[3,8]    findWorstP[3,2]  5.5713048562948286e-02
    x[3,9]    allocateEach[9]  1
    x[3,9]    findWorstP[1,3]  -1.5445883578978710e-03
    x[3,9]    findWorstP[2,3]  -1.0045134451725170e-01
    x[3,9]    findWorstP[3,1]  6.1330984508116047e-02
    x[3,9]    findWorstP[3,2]  6.1330984508116047e-02
    x[3,10]   allocateEach[10]  1
    x[3,10]   findWorstP[1,3]  -7.3274899508709246e-02
    x[3,10]   findWorstP[2,3]  -1.3608309089426032e-02
    x[3,10]   findWorstP[3,1]  3.9621622021716776e-02
    x[3,10]   findWorstP[3,2]  3.9621622021716776e-02
    x[3,11]   allocateEach[11]  1
    x[3,11]   findWorstP[1,3]  -4.5500223313979455e-03
    x[3,11]   findWorstP[2,3]  -3.0955164631991085e-02
    x[3,11]   findWorstP[3,1]  4.2708155999496691e-02
    x[3,11]   findWorstP[3,2]  4.2708155999496691e-02
    x[3,12]   allocateEach[12]  1
    x[3,12]   findWorstP[1,3]  -8.3603171058508258e-02
    x[3,12]   findWorstP[2,3]  -8.2383969112808948e-03
    x[3,12]   findWorstP[3,1]  6.5128087459197820e-02
    x[3,12]   findWorstP[3,2]  6.5128087459197820e-02
    x[3,13]   allocateEach[13]  1
    x[3,13]   findWorstP[1,3]  -1.9539973202322463e-04
    x[3,13]   findWorstP[2,3]  -2.3845129013839422e-02
    x[3,13]   findWorstP[3,1]  7.0649800522564282e-02
    x[3,13]   findWorstP[3,2]  7.0649800522564282e-02
    x[3,14]   allocateEach[14]  1
    x[3,14]   findWorstP[1,3]  -3.1840851570641655e-02
    x[3,14]   findWorstP[2,3]  -8.8787079583457967e-02
    x[3,14]   findWorstP[3,1]  6.9191653775267772e-02
    x[3,14]   findWorstP[3,2]  6.9191653775267772e-02
    x[3,15]   allocateEach[15]  1
    x[3,15]   findWorstP[1,3]  -6.0899583147238347e-02
    x[3,15]   findWorstP[2,3]  -4.8383588460806440e-02
    x[3,15]   findWorstP[3,1]  7.0649800522564282e-02
    x[3,15]   findWorstP[3,2]  7.0649800522564282e-02
    x[3,16]   allocateEach[16]  1
    x[3,16]   findWorstP[1,3]  -2.8165475658776241e-02
    x[3,16]   findWorstP[2,3]  -0.018665542836945
    x[3,16]   findWorstP[3,1]  7.0427747718407457e-02
    x[3,16]   findWorstP[3,2]  7.0427747718407457e-02
    x[3,17]   allocateEach[17]  1
    x[3,17]   findWorstP[1,3]  -2.4611061485782345e-02
    x[3,17]   findWorstP[2,3]  -5.7845509665841927e-02
    x[3,17]   findWorstP[3,1]  4.0761493083055163e-02
    x[3,17]   findWorstP[3,2]  4.0761493083055163e-02
    x[3,18]   allocateEach[18]  1
    x[3,18]   findWorstP[1,3]  -8.7808917671579570e-02
    x[3,18]   findWorstP[2,3]  -8.4436770983441642e-02
    x[3,18]   findWorstP[3,1]  6.8688334085845640e-02
    x[3,18]   findWorstP[3,2]  6.8688334085845640e-02
    x[3,19]   allocateEach[19]  1
    x[3,19]   findWorstP[1,3]  -7.5591782045556055e-02
    x[3,19]   findWorstP[2,3]  -2.5462900024470488e-02
    x[3,19]   findWorstP[3,1]  0.0496436052493283
    x[3,19]   findWorstP[3,2]  0.0496436052493283
    MARKER    'MARKER'                 'INTEND'
RHS
    RHS1      allocateEach[1]  1
    RHS1      allocateEach[2]  1
    RHS1      allocateEach[3]  1
    RHS1      allocateEach[4]  1
    RHS1      allocateEach[5]  1
    RHS1      allocateEach[6]  1
    RHS1      allocateEach[7]  1
    RHS1      allocateEach[8]  1
    RHS1      allocateEach[9]  1
    RHS1      allocateEach[10]  1
    RHS1      allocateEach[11]  1
    RHS1      allocateEach[12]  1
    RHS1      allocateEach[13]  1
    RHS1      allocateEach[14]  1
    RHS1      allocateEach[15]  1
    RHS1      allocateEach[16]  1
    RHS1      allocateEach[17]  1
    RHS1      allocateEach[18]  1
    RHS1      allocateEach[19]  1
    RHS1      allocateAllCash  1
BOUNDS
 UP BND1      z         1
 MI BND1      cashProportion[1]
 UP BND1      cashProportion[1]  1
 MI BND1      cashProportion[2]
 UP BND1      cashProportion[2]  1
 MI BND1      cashProportion[3]
 UP BND1      cashProportion[3]  1
 BV BND1      x[1,1]  
 BV BND1      x[1,2]  
 BV BND1      x[1,3]  
 BV BND1      x[1,4]  
 BV BND1      x[1,5]  
 BV BND1      x[1,6]  
 BV BND1      x[1,7]  
 BV BND1      x[1,8]  
 BV BND1      x[1,9]  
 BV BND1      x[1,10] 
 BV BND1      x[1,11] 
 BV BND1      x[1,12] 
 BV BND1      x[1,13] 
 BV BND1      x[1,14] 
 BV BND1      x[1,15] 
 BV BND1      x[1,16] 
 BV BND1      x[1,17] 
 BV BND1      x[1,18] 
 BV BND1      x[1,19] 
 BV BND1      x[2,1]  
 BV BND1      x[2,2]  
 BV BND1      x[2,3]  
 BV BND1      x[2,4]  
 BV BND1      x[2,5]  
 BV BND1      x[2,6]  
 BV BND1      x[2,7]  
 BV BND1      x[2,8]  
 BV BND1      x[2,9]  
 BV BND1      x[2,10] 
 BV BND1      x[2,11] 
 BV BND1      x[2,12] 
 BV BND1      x[2,13] 
 BV BND1      x[2,14] 
 BV BND1      x[2,15] 
 BV BND1      x[2,16] 
 BV BND1      x[2,17] 
 BV BND1      x[2,18] 
 BV BND1      x[2,19] 
 BV BND1      x[3,1]  
 BV BND1      x[3,2]  
 BV BND1      x[3,3]  
 BV BND1      x[3,4]  
 BV BND1      x[3,5]  
 BV BND1      x[3,6]  
 BV BND1      x[3,7]  
 BV BND1      x[3,8]  
 BV BND1      x[3,9]  
 BV BND1      x[3,10] 
 BV BND1      x[3,11] 
 BV BND1      x[3,12] 
 BV BND1      x[3,13] 
 BV BND1      x[3,14] 
 BV BND1      x[3,15] 
 BV BND1      x[3,16] 
 BV BND1      x[3,17] 
 BV BND1      x[3,18] 
 BV BND1      x[3,19] 
ENDATA
